c instance by G2
c solution = 0101110010011001110
c Known solution cost is 802 
p cnf 19 30
w 14 13 13 30 21 89 38 18 51 72 27 21 37 60 71 58 70 21 78
-1 -14 -12 0
12 14 -8 0
13 8 -19 0
10 13 -2 0
-17 -4 -10 0
19 -12 -15 0
18 -16 -12 0
-9 15 4 0
17 14 8 0
-5 -17 -8 0
11 9 -6 0
16 7 19 0
5 -16 10 0
-11 -18 -2 0
-13 12 19 0
-7 -16 -2 0
10 -4 -3 0
18 -5 16 0
4 11 12 0
-12 8 17 0
6 -5 -18 0
2 18 6 0
10 17 -7 0
-19 3 -4 0
-17 -15 -2 0
-10 -6 11 0
-12 -14 3 0
-9 -19 15 0
7 -16 -1 0
-5 10 2 0
